# Solution for model qis_1000_800_855
# Objective value = 3.0280510842736351e+02
x[0] 0
x[1] 0
x[2] 1
x[3] 1
x[4] 0
x[5] 0
x[6] 0
x[7] 1
x[8] 0
x[9] 1
x[10] 1
x[11] 1
x[12] 1
x[13] 0
x[14] 1
x[15] 0
x[16] 1
x[17] 1
x[18] 1
x[19] 0
x[20] 0
x[21] 0
x[22] 1
x[23] 1
x[24] 1
x[25] 1
x[26] 0
x[27] 1
x[28] 1
x[29] 1
x[30] 0
x[31] 0
x[32] 0
x[33] 0
x[34] 0
x[35] 0
x[36] 0
x[37] 0
x[38] 1
x[39] 1
x[40] 1
x[41] 0
x[42] 1
x[43] 0
x[44] 0
x[45] 1
x[46] 0
x[47] 0
x[48] 9.9999972727272746e-01
x[49] 0
x[50] 1
x[51] 1
x[52] 6.6603223355123813e-07
x[53] 0
x[54] 1
x[55] 1
x[56] 0
x[57] 0
x[58] 1
x[59] 1
x[60] 1
x[61] 0
x[62] 0
x[63] 0
x[64] 1
x[65] 0
x[66] 1
x[67] 1
x[68] 1
x[69] 0
x[70] 0
x[71] 1
x[72] 1
x[73] 0
x[74] 1.0000000721424356e+00
x[75] 0
x[76] 1
x[77] 1
x[78] 1
x[79] 1
x[80] 0
x[81] 0
x[82] 0
x[83] 0
x[84] 1
x[85] 1
x[86] 0
x[87] 1
x[88] 0
x[89] 1
x[90] 0
x[91] 0
x[92] 1
x[93] 0
x[94] 0
x[95] 1
x[96] 1
x[97] 1
x[98] 1
x[99] 0
x[100] 0
x[101] 1
x[102] 0
x[103] 0
x[104] 1.0000002271284343e+00
x[105] 0
x[106] 0
x[107] 1
x[108] 0
x[109] 0
x[110] 0
x[111] 0
x[112] 0
x[113] 0
x[114] 1
x[115] 0
x[116] 0
x[117] 1
x[118] 0
x[119] 1
x[120] 0
x[121] 0
x[122] 1
x[123] 1
x[124] 0
x[125] 0
x[126] 1
x[127] 0
x[128] 1
x[129] 0
x[130] 0
x[131] 1
x[132] 0
x[133] 0
x[134] 1
x[135] 0
x[136] 1
x[137] 0
x[138] 1
x[139] 0
x[140] 0
x[141] 0
x[142] 1
x[143] 1
x[144] 1
x[145] 0
x[146] 0
x[147] 0
x[148] -3.3757575786877046e-07
x[149] 1
x[150] 0
x[151] 9.9999973060606073e-01
x[152] 1
x[153] 1
x[154] 1
x[155] 1.0000002270797113e+00
x[156] 1
x[157] -6.7833471198406255e-08
x[158] 0
x[159] -2.2393939330502784e-07
x[160] 0
x[161] 0
x[162] 0
x[163] 1
x[164] 0
x[165] 1
x[166] 0
x[167] 0
x[168] 0
x[169] 1
x[170] 1
x[171] 1
x[172] 1
x[173] 1
x[174] 1
x[175] 0
x[176] 1
x[177] 0
x[178] 1
x[179] 0
x[180] 1
x[181] 1
x[182] 1
x[183] 1
x[184] 0
x[185] 0
x[186] 1
x[187] 1
x[188] 0
x[189] 1
x[190] 0
x[191] 9.9999999999999967e-01
x[192] 0
x[193] 0
x[194] 1
x[195] 1
x[196] 0
x[197] 0
x[198] 1
x[199] 0
x[200] 0
x[201] 0
x[202] 0
x[203] 0
x[204] 1
x[205] 1
x[206] 0
x[207] 1
x[208] 0
x[209] 1
x[210] -3.4090909096658988e-07
x[211] 0
x[212] 0
x[213] 1
x[214] 1
x[215] 1
x[216] 0
x[217] 0
x[218] 1
x[219] 0
x[220] 1
x[221] 0
x[222] 5.1096506701269054e-07
x[223] 0
x[224] 1
x[225] 0
x[226] 0
x[227] 1
x[228] 0
x[229] 0
x[230] 1
x[231] 0
x[232] 1
x[233] 0
x[234] 1
x[235] 1
x[236] 0
x[237] 0
x[238] 0
x[239] 1
x[240] 1
x[241] 1
x[242] 0
x[243] 1
x[244] 0
x[245] 1
x[246] 1
x[247] 1
x[248] 1
x[249] 1
x[250] 1
x[251] 0
x[252] 0
x[253] 0
x[254] -1.5454027531256450e-07
x[255] 0
x[256] 1
x[257] 1
x[258] 1
x[259] 1
x[260] 0
x[261] 1
x[262] 1
x[263] 1
x[264] 1
x[265] 1
x[266] 0
x[267] 1
x[268] 1
x[269] 1
x[270] 0
x[271] 0
x[272] 1
x[273] 0
x[274] 0
x[275] 0
x[276] 0
x[277] 0
x[278] 0
x[279] 1
x[280] 1
x[281] 1
x[282] 1
x[283] 0
x[284] 0
x[285] 0
x[286] 0
x[287] 0
x[288] 0
x[289] 1
x[290] 0
x[291] 1
x[292] 1
x[293] 1
x[294] 0
x[295] 1
x[296] 0
x[297] 1
x[298] 0
x[299] 1
x[300] 0
x[301] 0
x[302] 0
x[303] 1
x[304] 0
x[305] 1
x[306] 1
x[307] 0
x[308] 0
x[309] 1
x[310] 1
x[311] 1
x[312] 1
x[313] 1
x[314] 0
x[315] 0
x[316] 1
x[317] 1
x[318] 0
x[319] 0
x[320] 1
x[321] 1
x[322] 0
x[323] 1
x[324] 1
x[325] 1
x[326] 0
x[327] 1
x[328] 0
x[329] 0
x[330] 0
x[331] 0
x[332] 0
x[333] 0
x[334] 0
x[335] 1
x[336] 1
x[337] 0
x[338] 1
x[339] 0
x[340] 1
x[341] 1
x[342] 0
x[343] 0
x[344] 0
x[345] 1
x[346] 1
x[347] 0
x[348] 9.9999999999999978e-01
x[349] 1
x[350] 0
x[351] 0
x[352] 0
x[353] 0
x[354] 0
x[355] 0
x[356] 1
x[357] 1.0000003407352502e+00
x[358] 0
x[359] 1
x[360] 0
x[361] 1
x[362] 0
x[363] 1
x[364] 1
x[365] 0
x[366] 0
x[367] 1
x[368] -1.1363636333512729e-07
x[369] 0
x[370] 0
x[371] 1
x[372] 1
x[373] 0
x[374] 1
x[375] 1
x[376] 1
x[377] 1.0000001542687582e+00
x[378] 0
x[379] 1
x[380] 1
x[381] 1
x[382] 0
x[383] 0
x[384] 0
x[385] 0
x[386] 0
x[387] 1
x[388] 0
x[389] 1
x[390] 0
x[391] 0
x[392] 0
x[393] 0
x[394] 0
x[395] 1
x[396] 0
x[397] 1
x[398] 1
x[399] 0
x[400] 1
x[401] 0
x[402] 0
x[403] 0
x[404] 0
x[405] 0
x[406] 0
x[407] 1
x[408] 1
x[409] 0
x[410] 0
x[411] 1
x[412] 9.9999999999999956e-01
x[413] 0
x[414] 1
x[415] 1
x[416] 1
x[417] 1
x[418] 0
x[419] 1
x[420] 0
x[421] 0
x[422] 1
x[423] 1
x[424] 0
x[425] 1
x[426] 1
x[427] 2.7250800386842329e-07
x[428] 1
x[429] 1
x[430] 1
x[431] 0
x[432] 0
x[433] 0
x[434] 1
x[435] 1
x[436] 1
x[437] 0
x[438] 1
x[439] 0
x[440] 0
x[441] 0
x[442] 1
x[443] 1
x[444] 1
x[445] 0
x[446] 1
x[447] 0
x[448] 0
x[449] 1
x[450] 0
x[451] 0
x[452] 1
x[453] 1
x[454] 1
x[455] 0
x[456] 1
x[457] 0
x[458] 0
x[459] 1
x[460] 0
x[461] 0
x[462] 1
x[463] 1
x[464] 1
x[465] 0
x[466] 1
x[467] 1
x[468] 1
x[469] 1
x[470] 0
x[471] 1
x[472] 0
x[473] 0
x[474] 1
x[475] 0
x[476] 0
x[477] 1
x[478] 1
x[479] 0
x[480] 1
x[481] 0
x[482] 0
x[483] 1
x[484] 0
x[485] 1
x[486] 0
x[487] 1
x[488] 9.9999973060606084e-01
x[489] 0
x[490] 1
x[491] 0
x[492] 0
x[493] 0
x[494] 0
x[495] 0
x[496] 1
x[497] 0
x[498] 0
x[499] 1
x[500] 0
x[501] 1
x[502] 0
x[503] 0
x[504] 1
x[505] 1
x[506] 1
x[507] 0
x[508] 0
x[509] 0
x[510] 0
x[511] 1
x[512] 0
x[513] 1
x[514] 0
x[515] 0
x[516] 1
x[517] 1.0000003407233373e+00
x[518] 0
x[519] 0
x[520] 1
x[521] 0
x[522] 0
x[523] 1
x[524] 0
x[525] 0
x[526] 0
x[527] 0
x[528] 1
x[529] 1
x[530] 0
x[531] 1
x[532] 0
x[533] 1
x[534] 1
x[535] 0
x[536] 0
x[537] 0
x[538] 0
x[539] 1
x[540] 0
x[541] 1
x[542] 1
x[543] 1
x[544] 1
x[545] 0
x[546] 1
x[547] 1.0000000724376206e+00
x[548] 0
x[549] 0
x[550] 1
x[551] 0
x[552] 1
x[553] 0
x[554] 1
x[555] 0
x[556] 1
x[557] 0
x[558] 1
x[559] 0
x[560] 0
x[561] 0
x[562] 1
x[563] 1
x[564] 0
x[565] 0
x[566] 1
x[567] 0
x[568] 1
x[569] 0
x[570] 0
x[571] 0
x[572] 0
x[573] 1
x[574] 0
x[575] 1
x[576] 1
x[577] 1
x[578] 1
x[579] 0
x[580] 1
x[581] 0
x[582] 0
x[583] 0
x[584] 1
x[585] 1
x[586] 1
x[587] 1
x[588] 0
x[589] 1
x[590] 0
x[591] 0
x[592] 0
x[593] 0
x[594] 0
x[595] 0
x[596] 1
x[597] 0
x[598] 1
x[599] 0
x[600] 1
x[601] 0
x[602] 1
x[603] 1
x[604] 1
x[605] 1
x[606] 0
x[607] 0
x[608] 1
x[609] 1
x[610] 0
x[611] 1
x[612] 1
x[613] 1
x[614] 0
x[615] 1
x[616] 1
x[617] 1
x[618] 1
x[619] 1
x[620] 0
x[621] 1
x[622] 0
x[623] 1
x[624] 1
x[625] 0
x[626] 1
x[627] 1.0000001134811860e+00
x[628] 0
x[629] 1
x[630] 0
x[631] 0
x[632] 0
x[633] 1
x[634] 0
x[635] 1
x[636] 9.9999973060606073e-01
x[637] 1
x[638] 0
x[639] 0
x[640] 0
x[641] 1
x[642] 1
x[643] 0
x[644] 0
x[645] 1
x[646] 1
x[647] 0
x[648] 0
x[649] 1
x[650] 0
x[651] -2.2727272641135455e-07
x[652] 0
x[653] 0
x[654] 1
x[655] 1
x[656] 0
x[657] 1
x[658] 0
x[659] 1
x[660] 0
x[661] 0
x[662] 0
x[663] -4.5121212212384071e-07
x[664] 0
x[665] 0
x[666] 0
x[667] 1
x[668] 1
x[669] 1
x[670] 1
x[671] 1
x[672] 0
x[673] 1
x[674] 0
x[675] 0
x[676] 0
x[677] 0
x[678] 1
x[679] 1.0000003406738707e+00
x[680] 1
x[681] 1
x[682] 0
x[683] 1
x[684] 0
x[685] 0
x[686] -3.3739000391108414e-07
x[687] 0
x[688] 0
x[689] 1
x[690] -6.7732451134755658e-08
x[691] 1
x[692] 1
x[693] 0
x[694] 1
x[695] 1
x[696] 0
x[697] 1
x[698] 0
x[699] -7.2732450585509139e-08
x[700] 0
x[701] 1
x[702] 1
x[703] 0
x[704] 0
x[705] 0
x[706] 1
x[707] 0
x[708] 1
x[709] 0
x[710] 0
x[711] 1
x[712] 2.7241333036492048e-07
x[713] 1
x[714] 1
x[715] 0
x[716] 0
x[717] 1
x[718] 0
x[719] 0
x[720] 0
x[721] 1
x[722] 1
x[723] 0
x[724] 0
x[725] 1
x[726] 1
x[727] 1
x[728] 1
x[729] 1
x[730] 1
x[731] 0
x[732] 1
x[733] 0
x[734] 1
x[735] 0
x[736] 0
x[737] 0
x[738] 1
x[739] 0
x[740] 0
x[741] 1
x[742] 0
x[743] 0
x[744] 1
x[745] 1
x[746] 0
x[747] 1
x[748] 1
x[749] 0
x[750] 0
x[751] 0
x[752] 0
x[753] 0
x[754] 0
x[755] 1
x[756] 0
x[757] 0
x[758] 1
x[759] 0
x[760] 1
x[761] 1
x[762] 1
x[763] 1
x[764] 1
x[765] 0
x[766] 1
x[767] 0
x[768] 0
x[769] 0
x[770] 0
x[771] 9.9999965909090927e-01
x[772] 1
x[773] 0
x[774] 0
x[775] 1
x[776] 1
x[777] 0
x[778] 1
x[779] 1
x[780] 0
x[781] 0
x[782] 1
x[783] 1
x[784] 1
x[785] 0
x[786] 1
x[787] 1
x[788] 0
x[789] 0
x[790] 1
x[791] 0
x[792] 0
x[793] 0
x[794] 0
x[795] 0
x[796] 1
x[797] 1
x[798] 1
x[799] 1
x[800] 0
x[801] 0
x[802] 0
x[803] 0
x[804] 3.4060702658984816e-07
x[805] 0
x[806] 9.9999999999999989e-01
x[807] 0
x[808] 1
x[809] 1
x[810] 1
x[811] 0
x[812] 0
x[813] 1.0000000755010356e+00
x[814] 1
x[815] 0
x[816] 0
x[817] 0
x[818] 1
x[819] 0
x[820] 1
x[821] 0
x[822] 0
x[823] 1
x[824] 1
x[825] 0
x[826] 0
x[827] 1
x[828] 1
x[829] 1
x[830] 1
x[831] 1
x[832] 1
x[833] 0
x[834] 0
x[835] 0
x[836] 0
x[837] 1
x[838] 1
x[839] 1
x[840] 1
x[841] 0
x[842] 0
x[843] 0
x[844] 1
x[845] 0
x[846] 0
x[847] 0
x[848] 0
x[849] 1.0000003405641140e+00
x[850] 1
x[851] 0
x[852] 0
x[853] 0
x[854] 0
x[855] 1
x[856] 1
x[857] 1
x[858] 0
x[859] 1
x[860] 0
x[861] 0
x[862] 1
x[863] 0
x[864] 0
x[865] 1
x[866] 0
x[867] 0
x[868] 0
x[869] 1
x[870] 1
x[871] 1
x[872] 1
x[873] 0
x[874] 0
x[875] 1
x[876] 1
x[877] 1
x[878] 0
x[879] 0
x[880] 0
x[881] 1
x[882] 1
x[883] 0
x[884] 0
x[885] 1
x[886] 1
x[887] 1
x[888] 0
x[889] 0
x[890] 1
x[891] 1
x[892] 0
x[893] 1
x[894] 0
x[895] 1
x[896] -7.27324505067628e-08
x[897] 1
x[898] 0
x[899] 1
x[900] 1
x[901] 0
x[902] 1
x[903] 0
x[904] 0
x[905] 0
x[906] 0
x[907] 1
x[908] 0
x[909] 1
x[910] 0
x[911] 1
x[912] 0
x[913] 0
x[914] 1
x[915] 0
x[916] 0
x[917] 1
x[918] 1
x[919] 1
x[920] 1
x[921] 1
x[922] 1
x[923] 1
x[924] 0
x[925] 1
x[926] 0
x[927] 1
x[928] 1
x[929] 0
x[930] 0
x[931] 0
x[932] 1
x[933] 1
x[934] 1
x[935] 0
x[936] 1
x[937] 1
x[938] 0
x[939] 0
x[940] 0
x[941] 0
x[942] 0
x[943] 1.0000002724043635e+00
x[944] 0
x[945] 1
x[946] 1
x[947] 1
x[948] 0
x[949] 1
x[950] 1
x[951] 1
x[952] 0
x[953] 1
x[954] 0
x[955] 1
x[956] 0
x[957] 0
x[958] 1
x[959] 0
x[960] 0
x[961] 1
x[962] 0
x[963] 0
x[964] 0
x[965] 0
x[966] 1
x[967] 0
x[968] 0
x[969] 1
x[970] 1
x[971] 0
x[972] 0
x[973] 0
x[974] 0
x[975] 1
x[976] 1
x[977] 0
x[978] 1
x[979] 0
x[980] 0
x[981] 0
x[982] 0
x[983] 1
x[984] 0
x[985] 0
x[986] 1
x[987] 0
x[988] 0
x[989] 1
x[990] 0
x[991] 0
x[992] 0
x[993] 0
x[994] 1
x[995] 0
x[996] 0
x[997] 1
x[998] 0
x[999] 1
